(set-option :produce-models true); benchmark generated from python API
(set-info :status unknown)
(declare-fun l_0_0_9 () Real)
(declare-fun l_0_0_8 () Real)
(declare-fun l_0_0_3 () Real)
(declare-fun l_0_0_2 () Real)
(declare-fun _a_0_ () Real)
(declare-fun l_0_0_7 () Real)
(declare-fun l_0_0_1 () Real)
(declare-fun _a_1_ () Real)
(declare-fun l_0_0_6 () Real)
(declare-fun l_0_0_5 () Real)
(declare-fun l_0_0_4 () Real)
(declare-fun l_0_0_12 () Real)
(declare-fun l_0_0_11 () Real)
(declare-fun l_0_0_10 () Real)
(declare-fun _a_2_ () Real)
(declare-fun _a_3_ () Real)
(declare-fun l_0_1_9 () Real)
(declare-fun l_0_1_8 () Real)
(declare-fun l_0_1_15 () Real)
(declare-fun l_0_1_14 () Real)
(declare-fun l_0_1_3 () Real)
(declare-fun l_0_1_2 () Real)
(declare-fun l_0_1_7 () Real)
(declare-fun l_0_1_13 () Real)
(declare-fun l_0_1_1 () Real)
(declare-fun l_0_1_18 () Real)
(declare-fun l_0_1_17 () Real)
(declare-fun l_0_1_16 () Real)
(declare-fun l_0_1_12 () Real)
(declare-fun l_0_1_11 () Real)
(declare-fun l_0_1_10 () Real)
(declare-fun l_0_1_6 () Real)
(declare-fun l_0_1_5 () Real)
(declare-fun l_0_1_4 () Real)
(declare-fun l_0_2_9 () Real)
(declare-fun l_0_2_8 () Real)
(declare-fun l_0_2_15 () Real)
(declare-fun l_0_2_14 () Real)
(declare-fun l_0_2_3 () Real)
(declare-fun l_0_2_2 () Real)
(declare-fun l_0_2_16 () Real)
(declare-fun l_0_2_13 () Real)
(declare-fun l_0_2_7 () Real)
(declare-fun l_0_2_10 () Real)
(declare-fun l_0_2_5 () Real)
(declare-fun l_0_2_4 () Real)
(declare-fun l_0_2_1 () Real)
(declare-fun l_0_2_12 () Real)
(declare-fun l_0_2_11 () Real)
(declare-fun l_0_2_6 () Real)
(declare-fun l_0_2_18 () Real)
(declare-fun l_0_2_17 () Real)
(assert
 (let ((?x66 (* l_0_0_9 l_0_0_9)))
 (let ((?x64 (* l_0_0_8 l_0_0_8)))
 (let ((?x63 (- (- _a_0_ (* (* 2.0 l_0_0_2) l_0_0_2)) (* (* 2.0 l_0_0_3) l_0_0_3))))
 (= (- (- ?x63 ?x64) ?x66) 0.0)))))
(assert
 (let ((?x115 (- (- _a_1_ (* (* 4.0 l_0_0_1) l_0_0_2)) (* (* 2.0 l_0_0_7) l_0_0_8))))
 (= ?x115 0.0)))
(assert
 (let ((?x96 (* l_0_0_3 l_0_0_3)))
 (let ((?x88 (* l_0_0_2 l_0_0_2)))
 (let ((?x135 (* l_0_0_12 l_0_0_12)))
 (let ((?x136 (- (- (- _a_2_ (* l_0_0_10 l_0_0_10)) (* l_0_0_11 l_0_0_11)) ?x135)))
 (let ((?x144 (- (- (+ (+ ?x136 ?x88) ?x96) (* (* 2.0 l_0_0_4) l_0_0_4)) (* (* 2.0 l_0_0_5) l_0_0_5))))
 (= (- ?x144 (* (* 2.0 l_0_0_6) l_0_0_6)) 0.0)))))))
(assert
 (let ((?x182 (* l_0_0_7 l_0_0_7)))
 (let ((?x96 (* l_0_0_3 l_0_0_3)))
 (let ((?x88 (* l_0_0_2 l_0_0_2)))
 (let ((?x183 (- (+ (+ (- _a_3_ (* (* 2.0 l_0_0_1) l_0_0_1)) ?x88) ?x96) ?x182)))
 (= ?x183 0.0))))))
(assert
 (let ((?x200 (- (* (* (- 4.0) l_0_0_1) l_0_0_4) (* (* 2.0 l_0_0_10) l_0_0_7))))
 (= ?x200 0.0)))
(assert
 (let ((?x217 (- (* (* (- 2.0) l_0_0_10) l_0_0_8) (* (* 2.0 l_0_0_11) l_0_0_9))))
 (let ((?x223 (- (- ?x217 (* (* 4.0 l_0_0_2) l_0_0_4)) (* (* 4.0 l_0_0_3) l_0_0_5))))
 (= ?x223 0.0))))
(assert
 (let ((?x170 (* l_0_0_6 l_0_0_6)))
 (let ((?x164 (* l_0_0_5 l_0_0_5)))
 (= (+ (+ (+ (* l_0_0_1 l_0_0_1) (* l_0_0_4 l_0_0_4)) ?x164) ?x170) 0.0))))
(assert
 (= (* (* 2.0 l_0_0_1) l_0_0_2) 0.0))
(assert
 (= (* (* 2.0 l_0_0_1) l_0_0_4) 0.0))
(assert
 (let ((?x262 (+ (* (* 2.0 l_0_0_2) l_0_0_4) (* (* 2.0 l_0_0_3) l_0_0_5))))
 (= ?x262 0.0)))
(assert
 (let ((?x170 (* l_0_0_6 l_0_0_6)))
 (= (+ (+ (* l_0_0_4 l_0_0_4) (* l_0_0_5 l_0_0_5)) ?x170) 0.0)))
(assert
 (let ((?x185 (* l_0_0_1 l_0_0_1)))
 (= ?x185 0.0)))
(assert
 (= (* (* 2.0 l_0_0_1) l_0_0_2) 0.0))
(assert
 (= (* (* 2.0 l_0_0_1) l_0_0_4) 0.0))
(assert
 (let ((?x262 (+ (* (* 2.0 l_0_0_2) l_0_0_4) (* (* 2.0 l_0_0_3) l_0_0_5))))
 (= ?x262 0.0)))
(assert
 (>= l_0_0_1 0.0))
(assert
 (>= l_0_0_3 0.0))
(assert
 (>= l_0_0_6 0.0))
(assert
 (>= l_0_0_7 0.0))
(assert
 (>= l_0_0_9 0.0))
(assert
 (>= l_0_0_12 0.0))
(assert
 (let ((?x287 (* l_0_1_15 l_0_1_15)))
 (let ((?x285 (* l_0_1_14 l_0_1_14)))
 (let ((?x286 (- (* (- _a_0_) (+ (* l_0_1_2 l_0_1_2) (* l_0_1_3 l_0_1_3))) ?x285)))
 (let ((?x295 (+ (+ (- ?x286 ?x287) (* 3.0 (* l_0_1_8 l_0_1_8))) (* 3.0 (* l_0_1_9 l_0_1_9)))))
 (= (+ ?x295 (/ 121.0 100.0)) 0.0))))))
(assert
 (let ((?x320 (- (* (* (* (- 2.0) _a_0_) l_0_1_1) l_0_1_2) (* _a_1_ (+ (* l_0_1_2 l_0_1_2) (* l_0_1_3 l_0_1_3))))))
 (let ((?x327 (+ (- ?x320 (* (* 2.0 l_0_1_13) l_0_1_14)) (* (* 6.0 l_0_1_7) l_0_1_8))))
 (= (+ ?x327 1.0) 0.0))))
(assert
 (let ((?x293 (* l_0_1_9 l_0_1_9)))
 (let ((?x289 (* l_0_1_8 l_0_1_8)))
 (let ((?x378 (* l_0_1_18 l_0_1_18)))
 (let ((?x376 (* l_0_1_17 l_0_1_17)))
 (let ((?x374 (* l_0_1_16 l_0_1_16)))
 (let ((?x371 (* l_0_1_12 l_0_1_12)))
 (let ((?x372 (* 3.0 ?x371)))
 (let ((?x368 (* l_0_1_11 l_0_1_11)))
 (let ((?x369 (* 3.0 ?x368)))
 (let ((?x365 (* l_0_1_10 l_0_1_10)))
 (let ((?x366 (* 3.0 ?x365)))
 (let ((?x360 (* l_0_1_6 l_0_1_6)))
 (let ((?x361 (+ (+ (* l_0_1_4 l_0_1_4) (* l_0_1_5 l_0_1_5)) ?x360)))
 (let ((?x280 (- _a_0_)))
 (let ((?x364 (- (* ?x280 ?x361) (* _a_2_ (+ (* l_0_1_2 l_0_1_2) (* l_0_1_3 l_0_1_3))))))
 (let ((?x380 (- (- (- (- (+ (+ (+ ?x364 ?x366) ?x369) ?x372) ?x374) ?x376) ?x378) ?x289)))
 (= (- (- ?x380 ?x293) (/ 1.0 5.0)) 0.0))))))))))))))))))
(assert
 (let ((?x293 (* l_0_1_9 l_0_1_9)))
 (let ((?x289 (* l_0_1_8 l_0_1_8)))
 (let ((?x439 (* l_0_1_7 l_0_1_7)))
 (let ((?x440 (* 3.0 ?x439)))
 (let ((?x437 (* l_0_1_13 l_0_1_13)))
 (let ((?x434 (- (* (* (- _a_0_) l_0_1_1) l_0_1_1) (* (* (* 2.0 _a_1_) l_0_1_1) l_0_1_2))))
 (let ((?x436 (- ?x434 (* _a_3_ (+ (* l_0_1_2 l_0_1_2) (* l_0_1_3 l_0_1_3))))))
 (= (- (- (+ (- ?x436 ?x437) ?x440) ?x289) ?x293) 0.0)))))))))
(assert
 (let ((?x481 (+ (* (* 2.0 l_0_1_2) l_0_1_4) (* (* 2.0 l_0_1_3) l_0_1_5))))
 (let ((?x486 (+ (- (* (* (* (- 2.0) _a_0_) l_0_1_1) l_0_1_4) (* _a_1_ ?x481)) (* (* 6.0 l_0_1_10) l_0_1_7))))
 (= (- ?x486 (* (* 2.0 l_0_1_13) l_0_1_16)) 0.0))))
(assert
 (let ((?x481 (+ (* (* 2.0 l_0_1_2) l_0_1_4) (* (* 2.0 l_0_1_3) l_0_1_5))))
 (let ((?x280 (- _a_0_)))
 (let ((?x533 (+ (+ (* ?x280 ?x481) (* (* 6.0 l_0_1_10) l_0_1_8)) (* (* 6.0 l_0_1_11) l_0_1_9))))
 (let ((?x539 (- (- ?x533 (* (* 2.0 l_0_1_14) l_0_1_16)) (* (* 2.0 l_0_1_15) l_0_1_17))))
 (= ?x539 0.0))))))
(assert
 (let ((?x576 (* (* 2.0 l_0_1_7) l_0_1_8)))
 (let ((?x574 (- (* (* (- _a_1_) l_0_1_1) l_0_1_1) (* (* (* 2.0 _a_3_) l_0_1_1) l_0_1_2))))
 (= (- ?x574 ?x576) 0.0))))
(assert
 (let ((?x604 (* (* 2.0 l_0_1_11) l_0_1_9)))
 (let ((?x600 (* 2.0 l_0_1_10)))
 (let ((?x601 (* ?x600 l_0_1_8)))
 (let ((?x481 (+ (* (* 2.0 l_0_1_2) l_0_1_4) (* (* 2.0 l_0_1_3) l_0_1_5))))
 (let ((?x602 (- (- (* (* (* (- 2.0) _a_1_) l_0_1_1) l_0_1_4) (* _a_3_ ?x481)) ?x601)))
 (= (- ?x602 ?x604) 0.0)))))))
(assert
 (let ((?x576 (* (* 2.0 l_0_1_7) l_0_1_8)))
 (let ((?x360 (* l_0_1_6 l_0_1_6)))
 (let ((?x361 (+ (+ (* l_0_1_4 l_0_1_4) (* l_0_1_5 l_0_1_5)) ?x360)))
 (let ((?x568 (- _a_1_)))
 (let ((?x644 (- (- (* ?x568 ?x361) (* (* (* 2.0 _a_2_) l_0_1_1) l_0_1_2)) ?x576)))
 (= ?x644 0.0)))))))
(assert
 (let ((?x439 (* l_0_1_7 l_0_1_7)))
 (let ((?x371 (* l_0_1_12 l_0_1_12)))
 (let ((?x368 (* l_0_1_11 l_0_1_11)))
 (let ((?x365 (* l_0_1_10 l_0_1_10)))
 (let ((?x360 (* l_0_1_6 l_0_1_6)))
 (let ((?x361 (+ (+ (* l_0_1_4 l_0_1_4) (* l_0_1_5 l_0_1_5)) ?x360)))
 (let ((?x669 (- (- (* (* (- _a_2_) l_0_1_1) l_0_1_1) (* _a_3_ ?x361)) ?x365)))
 (= (- (- (- ?x669 ?x368) ?x371) ?x439) 0.0)))))))))
(assert
 (let ((?x600 (* 2.0 l_0_1_10)))
 (let ((?x709 (* ?x600 l_0_1_7)))
 (= (- (* (* (* (- 2.0) _a_2_) l_0_1_1) l_0_1_4) ?x709) 0.0))))
(assert
 (let ((?x604 (* (* 2.0 l_0_1_11) l_0_1_9)))
 (let ((?x600 (* 2.0 l_0_1_10)))
 (let ((?x601 (* ?x600 l_0_1_8)))
 (let ((?x481 (+ (* (* 2.0 l_0_1_2) l_0_1_4) (* (* 2.0 l_0_1_3) l_0_1_5))))
 (let ((?x664 (- _a_2_)))
 (= (- (- (* ?x664 ?x481) ?x601) ?x604) 0.0)))))))
(assert
 (let ((?x371 (* l_0_1_12 l_0_1_12)))
 (let ((?x368 (* l_0_1_11 l_0_1_11)))
 (let ((?x365 (* l_0_1_10 l_0_1_10)))
 (let ((?x360 (* l_0_1_6 l_0_1_6)))
 (let ((?x361 (+ (+ (* l_0_1_4 l_0_1_4) (* l_0_1_5 l_0_1_5)) ?x360)))
 (let ((?x664 (- _a_2_)))
 (= (- (- (- (* ?x664 ?x361) ?x365) ?x368) ?x371) 0.0))))))))
(assert
 (= (- (* (* (- _a_3_) l_0_1_1) l_0_1_1) (* l_0_1_7 l_0_1_7)) 0.0))
(assert
 (let ((?x600 (* 2.0 l_0_1_10)))
 (let ((?x709 (* ?x600 l_0_1_7)))
 (= (- (* (* (* (- 2.0) _a_3_) l_0_1_1) l_0_1_4) ?x709) 0.0))))
(assert
 (>= l_0_1_1 0.0))
(assert
 (>= l_0_1_3 0.0))
(assert
 (>= l_0_1_6 0.0))
(assert
 (>= l_0_1_7 0.0))
(assert
 (>= l_0_1_9 0.0))
(assert
 (>= l_0_1_12 0.0))
(assert
 (>= l_0_1_13 0.0))
(assert
 (>= l_0_1_15 0.0))
(assert
 (>= l_0_1_18 0.0))
(assert
 (let ((?x803 (* l_0_2_15 l_0_2_15)))
 (let ((?x801 (* l_0_2_14 l_0_2_14)))
 (let ((?x794 (+ (* (- _a_0_) (+ (* l_0_2_2 l_0_2_2) (* l_0_2_3 l_0_2_3))) _a_0_)))
 (let ((?x800 (+ (+ (+ ?x794 (* 1.0 _a_1_)) (* 1.0 _a_2_)) (* 1.0 _a_3_))))
 (let ((?x810 (- (- (- (- ?x800 ?x801) ?x803) (* (* 3.0 l_0_2_8) l_0_2_8)) (* (* 3.0 l_0_2_9) l_0_2_9))))
 (= ?x810 0.0)))))))
(assert
 (let ((?x847 (* 4.0 _a_3_)))
 (let ((?x431 (* 2.0 _a_1_)))
 (let ((?x843 (+ (* (* 2.0 l_0_2_2) l_0_2_4) (* (* 2.0 l_0_2_3) l_0_2_5))))
 (let ((?x846 (+ (- (* (* (* (- 2.0) _a_0_) l_0_2_1) l_0_2_4) (* _a_1_ ?x843)) ?x431)))
 (let ((?x854 (- (- (+ ?x846 ?x847) (* (* 6.0 l_0_2_10) l_0_2_7)) (* (* 2.0 l_0_2_13) l_0_2_16))))
 (= ?x854 0.0)))))))
(assert
 (let ((?x830 (* l_0_2_9 l_0_2_9)))
 (let ((?x824 (* l_0_2_8 l_0_2_8)))
 (let ((?x903 (* l_0_2_13 l_0_2_13)))
 (let ((?x571 (* 2.0 _a_3_)))
 (let ((?x897 (- (* (* (- _a_0_) l_0_2_1) l_0_2_1) (* (* (* 2.0 _a_1_) l_0_2_1) l_0_2_2))))
 (let ((?x901 (- (+ (+ ?x897 _a_1_) _a_2_) (* _a_3_ (+ (* l_0_2_2 l_0_2_2) (* l_0_2_3 l_0_2_3))))))
 (let ((?x908 (+ (- (- (+ ?x901 ?x571) ?x903) (* (* 3.0 l_0_2_7) l_0_2_7)) ?x824)))
 (= (+ ?x908 ?x830) 0.0)))))))))
(assert
 (let ((?x955 (* l_0_2_12 l_0_2_12)))
 (let ((?x953 (* l_0_2_11 l_0_2_11)))
 (let ((?x951 (* l_0_2_10 l_0_2_10)))
 (let ((?x947 (* l_0_2_6 l_0_2_6)))
 (let ((?x948 (+ (+ (* l_0_2_4 l_0_2_4) (* l_0_2_5 l_0_2_5)) ?x947)))
 (let ((?x664 (- _a_2_)))
 (= (+ (+ (+ (+ (* ?x664 ?x948) _a_2_) ?x951) ?x953) ?x955) 0.0))))))))
(assert
 (let ((?x973 (* (* 2.0 l_0_2_7) l_0_2_8)))
 (let ((?x640 (* 2.0 _a_2_)))
 (let ((?x947 (* l_0_2_6 l_0_2_6)))
 (let ((?x948 (+ (+ (* l_0_2_4 l_0_2_4) (* l_0_2_5 l_0_2_5)) ?x947)))
 (let ((?x568 (- _a_1_)))
 (let ((?x974 (+ (+ (- (* ?x568 ?x948) (* (* ?x640 l_0_2_1) l_0_2_2)) ?x640) ?x973)))
 (= ?x974 0.0))))))))
(assert
 (let ((?x830 (* l_0_2_9 l_0_2_9)))
 (let ((?x824 (* l_0_2_8 l_0_2_8)))
 (let ((?x1011 (* l_0_2_18 l_0_2_18)))
 (let ((?x1009 (* l_0_2_17 l_0_2_17)))
 (let ((?x1007 (* l_0_2_16 l_0_2_16)))
 (let ((?x640 (* 2.0 _a_2_)))
 (let ((?x947 (* l_0_2_6 l_0_2_6)))
 (let ((?x948 (+ (+ (* l_0_2_4 l_0_2_4) (* l_0_2_5 l_0_2_5)) ?x947)))
 (let ((?x280 (- _a_0_)))
 (let ((?x996 (- (* ?x280 ?x948) (* _a_2_ (+ (* l_0_2_2 l_0_2_2) (* l_0_2_3 l_0_2_3))))))
 (let ((?x1003 (- (- (- ?x996 ?x640) (* (* 3.0 l_0_2_10) l_0_2_10)) (* (* 3.0 l_0_2_11) l_0_2_11))))
 (let ((?x1012 (- (- (- (- ?x1003 (* (* 3.0 l_0_2_12) l_0_2_12)) ?x1007) ?x1009) ?x1011)))
 (= (+ (+ ?x1012 ?x824) ?x830) 0.0))))))))))))))
(assert
 (let ((?x640 (* 2.0 _a_2_)))
 (let ((?x1068 (- (* (* (* (- 2.0) _a_0_) l_0_2_1) l_0_2_2) (* _a_1_ (+ (* l_0_2_2 l_0_2_2) (* l_0_2_3 l_0_2_3))))))
 (let ((?x1074 (- (- (- ?x1068 ?x640) (* (* 2.0 l_0_2_13) l_0_2_14)) (* (* 6.0 l_0_2_7) l_0_2_8))))
 (= ?x1074 0.0)))))
(assert
 (let ((?x936 (* l_0_2_7 l_0_2_7)))
 (let ((?x955 (* l_0_2_12 l_0_2_12)))
 (let ((?x953 (* l_0_2_11 l_0_2_11)))
 (let ((?x951 (* l_0_2_10 l_0_2_10)))
 (let ((?x847 (* 4.0 _a_3_)))
 (let ((?x947 (* l_0_2_6 l_0_2_6)))
 (let ((?x948 (+ (+ (* l_0_2_4 l_0_2_4) (* l_0_2_5 l_0_2_5)) ?x947)))
 (let ((?x1112 (+ (- (* (* (- _a_2_) l_0_2_1) l_0_2_1) (* _a_3_ ?x948)) ?x847)))
 (= (+ (+ (+ (+ ?x1112 ?x951) ?x953) ?x955) ?x936) 0.0))))))))))
(assert
 (let ((?x1140 (* 2.0 l_0_2_10)))
 (let ((?x1141 (* ?x1140 l_0_2_7)))
 (let ((?x1142 (+ (+ (* (* (* (- 2.0) _a_3_) l_0_2_1) l_0_2_4) (* 4.0 _a_3_)) ?x1141)))
 (= ?x1142 0.0)))))
(assert
 (let ((?x936 (* l_0_2_7 l_0_2_7)))
 (= (+ (+ (* (* (- _a_3_) l_0_2_1) l_0_2_1) _a_3_) ?x936) 0.0)))
(assert
 (let ((?x843 (+ (* (* 2.0 l_0_2_2) l_0_2_4) (* (* 2.0 l_0_2_3) l_0_2_5))))
 (let ((?x280 (- _a_0_)))
 (let ((?x1163 (- (- (* ?x280 ?x843) (* (* 6.0 l_0_2_10) l_0_2_8)) (* (* 6.0 l_0_2_11) l_0_2_9))))
 (let ((?x1169 (- (- ?x1163 (* (* 2.0 l_0_2_14) l_0_2_16)) (* (* 2.0 l_0_2_15) l_0_2_17))))
 (= ?x1169 0.0))))))
(assert
 (let ((?x973 (* (* 2.0 l_0_2_7) l_0_2_8)))
 (let ((?x1207 (- (* (* (- _a_1_) l_0_2_1) l_0_2_1) (* (* (* 2.0 _a_3_) l_0_2_1) l_0_2_2))))
 (= (+ ?x1207 ?x973) 0.0))))
(assert
 (let ((?x1227 (* (* 2.0 l_0_2_11) l_0_2_9)))
 (let ((?x1140 (* 2.0 l_0_2_10)))
 (let ((?x1224 (* ?x1140 l_0_2_8)))
 (let ((?x843 (+ (* (* 2.0 l_0_2_2) l_0_2_4) (* (* 2.0 l_0_2_3) l_0_2_5))))
 (let ((?x1225 (+ (- (* (* (* (- 2.0) _a_1_) l_0_2_1) l_0_2_4) (* _a_3_ ?x843)) ?x1224)))
 (= (+ ?x1225 ?x1227) 0.0)))))))
(assert
 (let ((?x1140 (* 2.0 l_0_2_10)))
 (let ((?x1141 (* ?x1140 l_0_2_7)))
 (= (+ (* (* (* (- 2.0) _a_2_) l_0_2_1) l_0_2_4) ?x1141) 0.0))))
(assert
 (let ((?x1227 (* (* 2.0 l_0_2_11) l_0_2_9)))
 (let ((?x1140 (* 2.0 l_0_2_10)))
 (let ((?x1224 (* ?x1140 l_0_2_8)))
 (let ((?x843 (+ (* (* 2.0 l_0_2_2) l_0_2_4) (* (* 2.0 l_0_2_3) l_0_2_5))))
 (let ((?x664 (- _a_2_)))
 (= (+ (+ (* ?x664 ?x843) ?x1224) ?x1227) 0.0)))))))
(assert
 (>= l_0_2_1 0.0))
(assert
 (>= l_0_2_3 0.0))
(assert
 (>= l_0_2_6 0.0))
(assert
 (>= l_0_2_7 0.0))
(assert
 (>= l_0_2_9 0.0))
(assert
 (>= l_0_2_12 0.0))
(assert
 (>= l_0_2_13 0.0))
(assert
 (>= l_0_2_15 0.0))
(assert
 (>= l_0_2_18 0.0))
(check-sat)
(get-model)